1 of 1 MIP starts provided solutions.
MIP start 'm1' defined initial solution with objective 1355.4825.
Tried aggregator 1 time.
MIP Presolve eliminated 10 rows and 6 columns.
Reduced MIP has 3390 rows, 1944 columns, and 39561 nonzeros.
Reduced MIP has 1600 binaries, 0 generals, 0 SOSs, and 0 indicators.
Presolve time = 0.02 sec. (11.72 ticks)
Probing time = 0.00 sec. (3.60 ticks)
Tried aggregator 1 time.
Reduced MIP has 3390 rows, 1944 columns, and 39561 nonzeros.
Reduced MIP has 1600 binaries, 0 generals, 0 SOSs, and 0 indicators.
Presolve time = 0.02 sec. (11.73 ticks)
Probing time = 0.00 sec. (3.61 ticks)
Clique table members: 165.
MIP emphasis: balance optimality and feasibility.
MIP search method: dynamic search.
Parallel mode: none, using 1 thread.
Root relaxation solution time = 0.02 sec. (14.07 ticks)

        Nodes                                         Cuts/
   Node  Left     Objective  IInf  Best Integer    Best Bound    ItCnt     Gap

*     0+    0                         1355.4825     1438.0746      668    6.09%
      0     0     1424.6691    81     1355.4825     1424.6691      668    5.10%
      0     0     1384.7301    54     1355.4825     Cuts: 196      760    2.16%
      0     0     1375.7836    68     1355.4825      Cuts: 82      828    1.50%
      0     0     1371.6535    68     1355.4825      Cuts: 35      870    1.19%
      0     0     1369.6107    76     1355.4825      Cuts: 21      894    1.04%
      0     0     1368.3586    73     1355.4825      Cuts: 18      915    0.95%
      0     0     1367.9528    78     1355.4825       Cuts: 9      929    0.92%
      0     0     1367.7120    73     1355.4825       Cuts: 6      943    0.90%
      0     0     1367.1822    74     1355.4825       Cuts: 8      955    0.86%
      0     0     1366.9253    76     1355.4825       Cuts: 7      962    0.84%
      0     0     1366.9099    76     1355.4825       Cuts: 3      968    0.84%
      0     0     1366.9099    76     1355.4825   Impl Bds: 1      969    0.84%
      0     2     1366.9099    76     1355.4825     1366.8455      969    0.84%
Elapsed time = 0.76 sec. (472.68 ticks, tree = 0.00 MB, solutions = 1)
    100    67     1359.7326    46     1355.4825     1365.0383     1817    0.70%
    246   160     1359.5935    47     1355.4825     1363.0664     2688    0.56%
    378   234     1358.8996    36     1355.4825     1361.8649     3776    0.47%
    524   293     1355.6542    47     1355.4825     1361.1052     4538    0.41%
    671   347     1356.2101    45     1355.4825     1360.7079     5629    0.39%
    800   369     1356.2544    54     1355.4825     1360.0398     6729    0.34%
    974   414     1355.7271    32     1355.4825     1359.6052     7709    0.30%
   1137   452     1357.7200    56     1355.4825     1359.1307     8801    0.27%
   1277   463     1355.8470    36     1355.4825     1358.7497     9996    0.24%
   1952   468     1356.0905    44     1355.4825     1357.5248    14098    0.15%
Elapsed time = 4.24 sec. (3614.19 ticks, tree = 0.59 MB, solutions = 1)
   2620   236        cutoff           1355.4825     1356.2363    17851    0.06%

Implied bound cuts applied:  108
Flow cuts applied:  24
Mixed integer rounding cuts applied:  36
Gomory fractional cuts applied:  27

Root node processing (before b&c):
  Real time             =    0.76 sec. (472.59 ticks)
Sequential b&c:
  Real time             =    4.92 sec. (4520.66 ticks)
                          ------------
Total (root+branch&cut) =    5.68 sec. (4993.25 ticks)
